
List of user-set options:

                                    Name   Value                used
                           compl_inf_tol = 1                     yes
                         constr_viol_tol = 1                     yes
                            dual_inf_tol = 1000                  yes
                           linear_solver = ma97                  yes
                              ma86_small = 1e-30                  no
                                  ma86_u = 0.0001                 no
                              ma97_order = best                  yes
                              ma97_small = 1e-30                 yes
                            ma97_switch1 = at_start              yes
                            ma97_switch2 = od_hd_reuse           yes
                                  ma97_u = 1e-06                 yes
                               ma97_umax = 0.5                   yes
                                max_iter = 1000                  yes
                    max_refinement_steps = 20                    yes
                    min_refinement_steps = 5                     yes
                                 mu_init = 1e-06                 yes
           mu_superlinear_decrease_power = 1.25                  yes
                   nlp_scaling_min_value = 1e-08                 yes
                        option_file_name = Preset_Case:_23_NCP.opt  yes
                             output_file = ./tmp/Preset_Case:_23_NCP.output  yes
                      print_user_options = yes                   yes
        required_infeasibility_reduction = 1                      no
                                     tol = 1e-08                 yes
                   warm_start_bound_frac = 1e-20                 yes
                   warm_start_bound_push = 1e-20                 yes
                   warm_start_init_point = yes                   yes
              warm_start_mult_bound_push = 1e-20                 yes
                warm_start_mult_init_max = 1e+40                 yes
             warm_start_slack_bound_frac = 1e-20                 yes
             warm_start_slack_bound_push = 1e-20                 yes

******************************************************************************
This program contains Ipopt, a library for large-scale nonlinear optimization.
 Ipopt is released as open source code under the Eclipse Public License (EPL).
         For more information visit http://projects.coin-or.org/Ipopt
******************************************************************************

This is Ipopt version 3.12.10, running with linear solver ma97.

Number of nonzeros in equality constraint Jacobian...:   117167
Number of nonzeros in inequality constraint Jacobian.:      213
Number of nonzeros in Lagrangian Hessian.............:    47513

Total number of variables............................:    29977
                     variables with only lower bounds:    11312
                variables with lower and upper bounds:    15135
                     variables with only upper bounds:        0
Total number of equality constraints.................:    29864
Total number of inequality constraints...............:       25
        inequality constraints with only lower bounds:        4
   inequality constraints with lower and upper bounds:        0
        inequality constraints with only upper bounds:       21

iter    objective    inf_pr   inf_du lg(mu)  ||d||  lg(rg) alpha_du alpha_pr  ls
   0 -1.1161057e-01 1.83e-01 2.00e+00  -6.0 0.00e+00    -  0.00e+00 0.00e+00   0
In iteration 0, 9 Slacks too small, adjusting variable bounds
   1 -1.1161057e-01 1.83e-01 3.97e+02  -6.0 1.04e+10    -  3.96e-14 5.07e-19h  1
   2 -1.1019887e-01 1.75e-01 1.90e+03  -6.0 1.84e+02    -  9.26e-06 3.71e-02h  2
   3 -1.1019857e-01 1.75e-01 1.89e+03  -6.0 6.77e-01    -  9.55e-01 2.68e-03h  1
   4 -1.0933813e-01 1.70e-01 1.84e+03  -6.0 1.73e+02    -  2.34e-02 2.83e-02h  2
   5 -1.0822757e-01 1.64e-01 1.75e+03  -6.0 1.64e+02    -  5.91e-02 3.88e-02h  1
   6 -1.0715786e-01 1.58e-01 5.87e+03  -6.0 1.53e+02    -  1.07e-01 3.73e-02h  1
   7 -1.0550819e-01 1.48e-01 2.10e+04  -6.0 1.45e+02    -  2.98e-01 6.06e-02h  2
   8 -1.0382637e-01 1.38e-01 2.24e+04  -6.0 1.39e+02    -  1.53e-01 6.57e-02h  3
   9 -1.0170254e-01 1.29e-01 1.92e+04  -6.0 1.39e+02    -  9.11e-03 7.14e-02h  3
iter    objective    inf_pr   inf_du lg(mu)  ||d||  lg(rg) alpha_du alpha_pr  ls
  10 -1.0161279e-01 1.28e-01 1.40e+04  -6.0 4.24e+01  -2.0 7.12e-04 1.15e-03h  1
  11 -1.0158403e-01 1.28e-01 1.06e+04  -6.0 4.06e+01  -2.5 1.36e-03 6.03e-03h  1
  12 -1.0186367e-01 1.27e-01 6.51e+03  -6.0 2.83e+01  -3.0 1.20e-02 2.47e-03h  1
  13 -1.0175357e-01 1.27e-01 7.37e+03  -6.0 1.33e+02    -  3.33e-02 4.48e-03h  1
  14 -1.0168155e-01 1.26e-01 7.41e+03  -6.0 1.29e+02    -  4.48e-03 2.50e-03h  1
  15 -1.0082503e-01 1.22e-01 1.68e+04  -6.0 1.35e+02    -  3.58e-01 3.41e-02h  1
  16 -9.9373858e-02 1.16e-01 2.11e+04  -6.0 1.57e+02    -  4.82e-01 5.03e-02h  3
  17 -9.9098146e-02 1.15e-01 2.06e+04  -6.0 4.58e+02    -  4.26e-02 6.63e-03h  6
  18 -9.8114522e-02 1.10e-01 1.47e+04  -6.0 3.32e+01  -3.4 3.60e-02 4.40e-02h  2
  19 -9.6132539e-02 1.00e-01 3.43e+03  -6.0 2.67e+01  -3.9 4.52e-02 9.13e-02h  2
iter    objective    inf_pr   inf_du lg(mu)  ||d||  lg(rg) alpha_du alpha_pr  ls
  20 -9.4606500e-02 9.22e-02 1.52e+04  -6.0 3.34e+01  -4.4 2.15e-01 7.85e-02h  2
  21 -9.3066341e-02 8.53e-02 2.76e+04  -6.0 6.66e+01  -4.9 5.12e-01 7.56e-02h  1
  22 -9.3049667e-02 8.49e-02 3.87e+04  -6.0 4.41e+02  -5.3 1.43e-01 3.67e-03h  1
  23 -9.0906542e-02 7.41e-02 3.34e+04  -6.0 4.23e+01  -4.9 7.14e-01 1.27e-01h  2
  24 -9.0685242e-02 6.96e-02 3.55e+04  -6.0 2.50e+01  -4.5 1.47e-01 6.04e-02h  2
  25 -9.1181999e-02 6.79e-02 3.05e+04  -6.0 1.19e+02  -5.0 1.43e-01 2.46e-02h  2
  26 -9.1326749e-02 6.57e-02 3.32e+04  -6.0 2.45e+01  -4.5 1.16e-01 3.23e-02h  1
  27 -9.2064442e-02 6.36e-02 3.09e+04  -6.0 1.28e+02  -5.0 5.86e-02 3.25e-02h  3
  28 -9.2963255e-02 5.77e-02 4.66e+04  -6.0 2.68e+01  -4.6 5.48e-01 9.27e-02h  2
  29 -9.3503217e-02 6.60e-02 3.90e+04  -6.0 2.21e+02  -5.1 5.87e-02 1.73e-02h  2
iter    objective    inf_pr   inf_du lg(mu)  ||d||  lg(rg) alpha_du alpha_pr  ls
  30 -9.4189289e-02 7.57e-02 4.19e+04  -6.0 4.55e+01  -4.6 3.24e-01 7.40e-02h  1
  31 -9.4548817e-02 7.97e-02 1.51e+05  -6.0 1.71e+01  -4.2 6.87e-01 5.15e-02h  3
  32 -9.4781036e-02 9.87e-02 1.35e+05  -6.0 4.63e+01  -4.7 4.59e-01 3.41e-02h  4
  33 -9.5058006e-02 1.07e-01 2.34e+05  -6.0 2.44e+01  -4.3 8.03e-01 3.87e-02h  4
  34 -9.5157833e-02 1.12e-01 2.20e+05  -6.0 5.87e+01  -4.7 8.98e-02 3.26e-02h  4
  35 -9.5374207e-02 1.17e-01 2.74e+05  -6.0 3.21e+01  -4.3 8.99e-01 3.35e-02h  4
  36 -9.5331704e-02 1.15e-01 2.67e+05  -6.0 1.44e+02  -4.8 3.68e-02 9.64e-03h  5
  37 -9.6594814e-02 5.90e-01 2.24e+05  -6.0 3.76e+01  -4.4 9.65e-01 2.27e-01h  1
  38 -9.8495885e-02 7.87e-01 5.25e+04  -6.0 1.69e+01  -3.9 2.40e-02 3.43e-01h  1
  39 -9.9318046e-02 8.06e-01 5.46e+04  -6.0 2.64e+01  -4.4 4.35e-01 2.52e-01h  1
iter    objective    inf_pr   inf_du lg(mu)  ||d||  lg(rg) alpha_du alpha_pr  ls
  40 -1.0085908e-01 5.21e-01 5.37e+04  -6.0 1.25e+01  -4.0 1.12e-01 3.77e-01h  1
  41 -1.0230254e-01 1.01e+00 1.34e+05  -6.0 2.85e+01  -4.5 1.55e-02 3.69e-01h  1
  42 -1.0268806e-01 9.68e-01 1.15e+05  -6.0 3.76e+01  -4.9 1.81e-04 1.24e-01h  1
  43 -1.0253513e-01 3.85e-01 1.29e+05  -6.0 1.72e+01  -4.5 1.13e-01 8.33e-01h  1
  44 -1.0262800e-01 2.85e-01 1.34e+05  -6.0 4.21e+00  -4.1 2.11e-01 2.65e-01h  1
  45r-1.0262800e-01 2.85e-01 1.00e+03  -0.9 0.00e+00  -4.6 0.00e+00 1.23e-07R  2
  46r-1.0244739e-01 2.80e-01 1.00e+03  -0.9 1.36e+04    -  1.14e-05 2.01e-05f  1
  47 -1.0234650e-01 2.35e-01 6.26e+07  -6.0 2.23e+00    -  7.93e-01 1.61e-01h  1
  48 -1.0185198e-01 9.54e-03 3.92e+08  -6.0 5.35e+00    -  1.61e-01 9.59e-01h  1
  49 -1.0187497e-01 1.44e-05 3.94e+03  -6.0 6.84e-01    -  4.75e-01 1.00e+00h  1
iter    objective    inf_pr   inf_du lg(mu)  ||d||  lg(rg) alpha_du alpha_pr  ls
  50 -1.0231653e-01 8.97e-04 2.39e+02  -6.0 1.89e+00    -  9.35e-01 1.00e+00h  1
  51 -1.0347895e-01 1.57e-02 1.31e+02  -6.0 1.34e+01    -  4.50e-01 1.00e+00h  1
  52 -1.0816034e-01 7.33e-02 6.30e+01  -6.0 4.75e+01    -  5.20e-01 6.95e-01h  1
  53 -1.1434361e-01 1.78e-01 4.93e+01  -6.0 1.32e+02    -  2.18e-01 3.41e-01h  1
  54 -1.2612395e-01 5.36e-01 5.04e+01  -6.0 2.33e+02    -  3.44e-01 4.45e-01h  1
  55 -1.2648040e-01 5.26e-01 4.25e+01  -6.0 1.24e+02    -  4.69e-03 1.94e-02h  1
  56 -1.3484026e-01 7.14e-01 2.19e+02  -6.0 1.26e+02    -  3.71e-02 4.87e-01f  1
  57 -1.3608108e-01 6.71e-01 9.96e+01  -6.0 1.24e+02    -  4.97e-01 7.95e-02h  1
  58 -1.3982314e-01 7.84e-01 8.98e+01  -6.0 2.26e+02    -  4.10e-01 1.44e-01h  1
  59 -1.5053676e-01 2.74e+00 9.52e+01  -6.0 3.30e+02    -  4.60e-01 3.37e-01h  1
iter    objective    inf_pr   inf_du lg(mu)  ||d||  lg(rg) alpha_du alpha_pr  ls
  60 -1.6431537e-01 6.86e+00 8.02e+01  -6.0 5.42e+02    -  5.38e-01 4.77e-01h  1
  61 -1.6606714e-01 7.04e+00 7.69e+01  -6.0 1.88e+03    -  7.64e-02 4.46e-02h  1
  62 -1.6992239e-01 8.75e+00 9.34e+01  -6.0 1.89e+03    -  1.69e-01 8.98e-02h  1
  63 -1.7448970e-01 7.76e+00 3.82e+02  -6.0 9.30e+02    -  3.37e-01 1.48e-01h  1
  64 -1.7680335e-01 7.21e+00 7.87e+02  -6.0 1.47e+03    -  3.26e-01 7.94e-02h  1
  65 -1.7941282e-01 6.67e+00 1.33e+03  -6.0 1.18e+03    -  4.33e-01 8.91e-02h  1
  66 -1.8523642e-01 6.40e+00 1.09e+03  -6.0 1.68e+03    -  1.98e-01 1.91e-01h  1
  67 -1.8575994e-01 6.33e+00 1.31e+03  -6.0 3.24e+03    -  1.47e-01 1.34e-02h  1
  68 -1.8944105e-01 5.25e+00 1.23e+03  -6.0 2.58e+03    -  3.42e-01 1.92e-01h  1
  69 -1.8949849e-01 5.06e+00 8.15e+02  -6.0 8.11e+00  -5.1 1.49e-01 3.49e-02h  1
iter    objective    inf_pr   inf_du lg(mu)  ||d||  lg(rg) alpha_du alpha_pr  ls
  70 -1.8963947e-01 4.58e+00 9.88e+02  -6.0 1.06e+01  -5.5 2.97e-01 9.48e-02h  1
  71 -1.9007822e-01 3.64e+00 2.54e+03  -6.0 1.37e+01  -6.0 8.66e-01 2.05e-01h  1
  72 -1.9010336e-01 3.50e+00 2.27e+03  -6.0 1.99e+01  -6.5 5.79e-01 3.86e-02h  1
  73 -1.9013152e-01 3.33e+00 5.32e+03  -6.0 8.08e+01  -7.0 9.79e-01 4.88e-02h  1
  74 -1.9059094e-01 3.28e+00 5.22e+03  -6.0 4.13e+03  -7.4 2.95e-01 1.74e-02h  1
  75 -1.9075978e-01 3.19e+00 4.25e+03  -6.0 2.04e+02  -7.9 9.86e-01 2.56e-02h  1
  76 -1.9383728e-01 2.15e+00 3.83e+03  -6.0 3.71e+02  -8.4 9.17e-01 3.60e-01h  1
  77 -1.9592720e-01 1.37e+00 6.09e+03  -6.0 3.75e+02  -8.0 1.00e+00 3.74e-01h  1
  78 -1.9776236e-01 1.14e+00 5.02e+03  -6.0 6.58e+02  -8.4 2.12e-01 1.99e-01h  1
  79 -1.9903799e-01 1.10e+00 5.45e+03  -6.0 1.11e+03  -8.9 1.42e-01 8.91e-02h  1
iter    objective    inf_pr   inf_du lg(mu)  ||d||  lg(rg) alpha_du alpha_pr  ls
  80 -2.0000384e-01 1.02e+00 2.36e+04  -6.0 1.05e+03  -8.5 9.90e-01 8.92e-02h  1
  81 -2.0000401e-01 1.02e+00 2.36e+04  -6.0 1.37e+03  -9.0 8.96e-04 1.47e-05h  1
  82 -2.0322683e-01 1.86e+00 1.11e+04  -6.0 5.91e+02  -8.5 2.80e-01 4.68e-01f  1
  83 -2.0430055e-01 1.61e+00 2.94e+04  -6.0 1.85e+03  -9.0 5.05e-01 8.64e-02h  1
  84 -2.0817208e-01 6.63e+00 2.30e+04  -6.0 1.29e+03  -8.6 5.79e-01 4.33e-01h  1
  85 -2.1089185e-01 4.29e+00 2.23e+04  -6.0 8.83e+02  -8.2 2.79e-01 4.94e-01h  1
  86 -2.1341517e-01 5.74e+00 2.34e+05  -6.0 1.34e+03  -7.7 1.05e-02 3.07e-01h  1
  87r-2.1341517e-01 5.74e+00 1.00e+03   0.6 0.00e+00  -8.2 0.00e+00 3.32e-07R  5
  88r-2.1312689e-01 5.74e+00 1.04e+03   0.6 2.78e+04    -  4.43e-07 8.46e-07f  1
  89 -2.1312977e-01 5.54e+00 6.53e+04  -6.0 9.81e+00    -  7.47e-02 3.42e-02h  1
iter    objective    inf_pr   inf_du lg(mu)  ||d||  lg(rg) alpha_du alpha_pr  ls
  90 -2.1311847e-01 4.43e+00 6.36e+05  -6.0 9.47e+00    -  3.42e-02 2.00e-01h  1
  91 -2.1311002e-01 3.91e+00 5.61e+05  -6.0 7.55e+00    -  2.66e-01 1.18e-01h  1
  92 -2.1303922e-01 8.07e-02 1.15e+04  -6.0 6.64e+00    -  3.91e-01 9.79e-01h  1
  93 -2.1305030e-01 1.99e-02 2.85e+03  -6.0 1.49e-01    -  9.65e-01 7.53e-01h  1
  94 -2.1307540e-01 1.86e-02 2.66e+03  -6.0 1.70e+00    -  8.57e-01 6.66e-02h  1
  95 -2.1326339e-01 1.62e-02 2.32e+03  -6.0 1.13e+01    -  5.05e-01 1.29e-01f  1
  96 -2.1327751e-01 1.76e-03 2.52e+02  -6.0 7.37e-02  -3.3 9.89e-01 8.91e-01h  1
  97 -2.1469213e-01 9.10e-02 2.31e+02  -6.0 1.31e+03    -  7.39e-02 8.12e-02f  1
  98 -2.1475508e-01 8.91e-02 2.32e+02  -6.0 5.39e+02    -  8.79e-01 2.84e-02h  1
  99 -2.1478474e-01 8.06e-02 2.95e+02  -6.0 1.75e+00  -3.8 7.06e-02 9.58e-02h  1
iter    objective    inf_pr   inf_du lg(mu)  ||d||  lg(rg) alpha_du alpha_pr  ls
 100 -2.1479221e-01 2.04e-04 1.82e-01  -6.0 2.48e-01  -4.2 1.00e+00 1.00e+00f  1
 101 -2.1486415e-01 2.97e-04 1.45e-01  -6.0 9.43e-01  -4.7 1.00e+00 1.00e+00h  1
 102 -2.1508396e-01 2.02e-03 1.63e-01  -6.0 2.73e+00  -5.2 1.00e+00 1.00e+00h  1
 103 -2.1562703e-01 1.23e-02 9.95e-01  -6.0 6.63e+00  -5.7 1.00e+00 1.00e+00h  1
 104 -2.1570486e-01 1.18e-02 4.91e+01  -6.0 1.18e+01  -6.1 7.19e-01 8.15e-02h  1
 105 -2.1595031e-01 5.96e-03 2.69e+02  -6.0 1.31e+01  -6.6 1.00e+00 5.17e-01f  1
 106 -2.1634677e-01 6.21e-03 2.56e+02  -6.0 3.15e+01  -7.1 7.03e-01 4.99e-01f  1
 107 -2.1748446e-01 6.12e-02 6.83e+00  -6.0 5.84e+01  -7.6 1.00e+00 1.00e+00h  1
 108 -2.1789929e-01 7.46e-02 2.04e+03  -6.0 1.54e+02  -8.1 6.45e-01 3.12e-01h  1
 109 -2.2045376e-01 2.16e+00 3.49e+01  -6.0 3.51e+02  -8.5 1.00e+00 9.91e-01h  1
iter    objective    inf_pr   inf_du lg(mu)  ||d||  lg(rg) alpha_du alpha_pr  ls
 110 -2.2176617e-01 1.81e+00 1.58e+03  -6.0 8.45e+02  -9.0 3.41e-01 3.00e-01h  1
 111 -2.2306716e-01 9.04e-01 1.66e+04  -6.0 2.78e+02  -8.6 7.92e-01 5.68e-01h  1
 112 -2.2308626e-01 9.68e-01 1.64e+04  -6.0 1.43e+05  -9.1 7.30e-04 5.20e-04h  1
 113 -2.2390378e-01 8.19e-01 8.20e+03  -6.0 4.37e+02  -8.6 2.20e-01 2.34e-01h  1
 114 -2.2402661e-01 8.26e-01 9.21e+05  -6.0 1.19e+04  -9.1 3.88e-04 2.82e-03h  1
 115 -2.2580738e-01 1.28e+00 3.33e+05  -6.0 5.22e+02  -8.7 4.32e-01 6.25e-01h  1
 116 -2.2590549e-01 1.28e+00 3.31e+05  -6.0 9.98e+03  -9.2 1.02e-02 3.30e-03h  1
 117 -2.2663346e-01 1.18e+00 2.59e+05  -6.0 1.22e+03  -8.7 5.22e-02 2.36e-01f  1
 118 -2.2671040e-01 1.07e+00 2.37e+05  -6.0 3.56e+02  -7.4 3.65e-02 8.98e-02h  1
 119 -2.2780529e-01 1.45e+00 6.43e+04  -6.0 3.68e+01  -7.0 2.86e-01 7.74e-01h  1
iter    objective    inf_pr   inf_du lg(mu)  ||d||  lg(rg) alpha_du alpha_pr  ls
 120 -2.2815920e-01 1.47e+00 2.14e+04  -6.0 1.44e+01  -6.6 5.05e-01 6.99e-01h  1
 121 -2.2895499e-01 7.40e+00 1.59e+04  -6.0 2.13e+02  -7.0 1.55e-01 2.86e-01h  1
 122 -2.2905858e-01 7.10e+00 1.25e+04  -6.0 6.61e+01  -7.5 7.26e-01 5.24e-02h  1
 123 -2.3146144e-01 1.96e-01 4.04e+02  -6.0 1.16e+02  -8.0 6.79e-01 1.00e+00h  1
 124 -2.3198374e-01 6.05e-01 8.90e+01  -6.0 2.78e+02  -8.5 8.56e-01 5.94e-01h  1
 125 -2.3245457e-01 7.76e-01 6.11e+01  -6.0 8.45e+02  -8.9 5.15e-01 1.49e-01h  1
 126 -2.3400070e-01 6.25e+00 4.56e+01  -6.0 1.87e+03  -9.4 1.99e-01 2.79e-01h  1
 127 -2.3593427e-01 6.38e+00 2.27e+01  -6.0 8.85e+02  -9.0 9.50e-01 7.79e-01h  1
 128 -2.3688460e-01 2.34e+00 5.93e+01  -6.0 3.62e+02  -8.6 1.97e-01 7.14e-01h  1
 129 -2.3907471e-01 8.95e+00 1.10e+02  -6.0 1.64e+04  -9.0 1.93e-02 4.33e-02h  1
iter    objective    inf_pr   inf_du lg(mu)  ||d||  lg(rg) alpha_du alpha_pr  ls
 130 -2.3907447e-01 8.95e+00 1.10e+02  -6.0 1.97e+01  -1.2 5.51e-04 3.12e-04h  1
 131 -2.3907310e-01 8.93e+00 1.10e+02  -6.0 1.99e+01  -0.8 1.43e-03 1.96e-03h  1
 132 -2.3907284e-01 8.92e+00 1.10e+02  -6.0 1.99e+01  -0.3 2.16e-03 5.91e-04h  1
 133 -2.3906909e-01 8.89e+00 1.10e+02  -6.0 1.96e+01  -0.8 1.74e-03 3.41e-03h  1
 134 -2.3906663e-01 8.88e+00 1.09e+02  -6.0 1.95e+01  -0.4 7.24e-03 1.96e-03h  1
 135 -2.3906322e-01 8.86e+00 1.09e+02  -6.0 1.94e+01  -0.9 1.73e-03 2.21e-03h  1
 136 -2.3906069e-01 8.84e+00 1.09e+02  -6.0 1.93e+01  -0.4 7.82e-03 1.78e-03h  1
 137 -2.3902403e-01 8.62e+00 4.14e+02  -6.0 1.93e+01  -0.9 1.78e-03 2.55e-02f  1
 138 -2.3900250e-01 8.48e+00 7.22e+02  -6.0 1.87e+01  -0.5 2.47e-02 1.55e-02h  1
 139 -2.3898413e-01 8.37e+00 1.31e+03  -6.0 1.83e+01  -0.1 7.59e-02 1.35e-02h  1
iter    objective    inf_pr   inf_du lg(mu)  ||d||  lg(rg) alpha_du alpha_pr  ls
 140 -2.3860618e-01 6.08e+00 7.45e+04  -6.0 1.80e+01  -0.5 4.46e-02 2.80e-01h  1
 141 -2.3799410e-01 2.15e+00 5.67e+04  -6.0 1.23e+01  -1.0 1.80e-03 6.70e-01h  1
 142 -2.3798247e-01 2.02e+00 5.33e+04  -6.0 3.64e+00  -1.5 8.65e-01 5.98e-02h  1
 143 -2.3779458e-01 4.43e-02 1.10e+04  -6.0 3.40e+00  -2.0 1.73e-01 1.00e+00h  1
 144 -2.3780417e-01 1.63e-05 5.43e+01  -6.0 2.06e-02  -2.5 7.82e-01 1.00e+00h  1
 145 -2.3782506e-01 3.99e-05 4.44e+01  -6.0 4.00e-02  -2.9 4.71e-01 1.00e+00h  1
 146 -2.3788581e-01 3.56e-04 2.04e+01  -6.0 1.19e-01  -3.4 5.99e-01 1.00e+00h  1
 147 -2.3798355e-01 1.24e-03 1.22e+01  -6.0 3.31e-01  -3.9 4.41e-01 6.07e-01h  1
 148 -2.3803743e-01 1.33e-03 1.53e+01  -6.0 6.84e-01  -4.4 9.64e-01 1.52e-01f  1
 149 -2.3812101e-01 2.37e-03 1.72e+01  -6.0 1.40e+00  -4.8 8.45e-01 1.48e-01f  1
iter    objective    inf_pr   inf_du lg(mu)  ||d||  lg(rg) alpha_du alpha_pr  ls
 150 -2.3851353e-01 2.57e-01 6.42e+00  -6.0 3.44e+00  -5.3 5.37e-01 6.02e-01f  1
 151 -2.3904798e-01 6.84e-01 1.13e+01  -6.0 8.34e+00  -5.8 6.06e-01 4.06e-01h  1
 152 -2.3950375e-01 6.29e-01 5.70e+01  -6.0 1.95e+01  -6.3 5.01e-01 1.79e-01h  1
 153 -2.3999559e-01 3.78e-01 1.13e+02  -6.0 3.92e+01  -6.7 1.73e-01 1.74e-01h  1
 154 -2.4031064e-01 9.50e-01 1.25e+02  -6.0 3.04e+01  -7.2 2.50e-01 2.16e-01h  1
 155 -2.4055044e-01 1.09e+00 7.79e+01  -6.0 8.37e+01  -7.7 5.38e-01 2.42e-01f  1
 156 -2.4083241e-01 9.28e-01 6.62e+01  -6.0 1.45e+02  -8.2 5.71e-01 1.45e-01h  1
 157 -2.4160640e-01 2.85e+00 5.66e+01  -6.0 3.85e+02  -8.7 7.95e-01 1.77e-01h  1
 158 -2.4575708e-01 4.38e+00 2.54e+01  -6.0 1.04e+03  -9.1 6.23e-01 5.37e-01h  1
 159 -2.4617642e-01 3.67e+00 2.21e+01  -6.0 3.83e+02  -8.7 2.30e-01 1.80e-01h  1
iter    objective    inf_pr   inf_du lg(mu)  ||d||  lg(rg) alpha_du alpha_pr  ls
 160 -2.4853442e-01 5.96e+00 2.24e+01  -6.0 9.66e+02  -9.2 6.62e-01 4.18e-01h  1
 161 -2.5038419e-01 3.87e+00 2.53e+01  -6.0 1.32e+03  -9.7 6.11e-01 3.65e-01h  1
 162 -2.5361557e-01 9.75e+00 1.54e+03  -6.0 1.55e+03 -10.1 1.91e-01 6.37e-01h  1
 163 -2.5374500e-01 9.39e+00 1.51e+03  -6.0 1.95e+03  -8.8 5.16e-02 6.45e-02h  1
 164 -2.5390337e-01 5.25e+00 2.89e+02  -6.0 3.85e+02  -9.3 2.01e-01 5.05e-01h  1
 165 -2.5394009e-01 4.68e+00 2.85e+02  -6.0 3.26e+02  -8.9 6.23e-01 1.13e-01h  1
 166 -2.5400242e-01 4.48e+00 2.73e+02  -6.0 1.37e+03  -9.3 5.46e-02 4.66e-02h  1
 167 -2.5405316e-01 4.38e+00 2.55e+02  -6.0 1.55e+03  -9.8 7.19e-02 2.98e-02h  1
 168 -2.5436411e-01 7.00e+00 2.43e+02  -6.0 2.49e+03 -10.3 1.19e-01 1.85e-01h  1
 169 -2.5470754e-01 8.46e+00 1.99e+02  -6.0 4.43e+03 -10.8 2.15e-01 1.99e-01h  1
iter    objective    inf_pr   inf_du lg(mu)  ||d||  lg(rg) alpha_du alpha_pr  ls
 170 -2.5538411e-01 4.80e+01 3.52e+01  -6.0 6.77e+03 -11.2 1.96e-01 4.41e-01h  1
 171 -2.5542997e-01 2.90e+01 2.37e+02  -6.0 3.00e+02  -9.0 8.98e-01 3.97e-01h  1
 172 -2.5539918e-01 1.07e+00 1.76e+03  -6.0 1.94e+02  -7.7 1.24e-01 1.00e+00h  1
 173 -2.5540850e-01 2.01e-03 5.18e+00  -6.0 4.17e+00  -6.4 9.79e-01 1.00e+00h  1
 174 -2.5544185e-01 3.23e-03 3.85e+00  -6.0 6.50e+00  -6.8 9.84e-01 1.00e+00h  1
 175 -2.5544027e-01 4.59e-03 4.19e+00  -6.0 1.25e+02  -7.3 7.45e-02 2.08e-02h  1
 176 -2.5547628e-01 1.24e-02 3.07e+00  -6.0 6.08e+01  -7.8 4.78e-01 3.94e-01f  1
 177 -2.5572350e-01 5.25e-01 2.76e+00  -6.0 1.35e+02  -8.3 1.00e+00 1.00e+00f  1
 178 -2.5601813e-01 1.03e+00 4.73e+00  -6.0 5.04e+02  -8.7 4.12e-01 2.99e-01h  1
 179 -2.5605022e-01 5.53e-01 1.11e+01  -6.0 3.73e+02  -9.2 4.62e-01 4.65e-01h  1
iter    objective    inf_pr   inf_du lg(mu)  ||d||  lg(rg) alpha_du alpha_pr  ls
 180 -2.5630344e-01 8.05e-01 1.70e+03  -6.0 4.35e+02  -9.7 5.60e-01 2.68e-01h  1
 181 -2.5646192e-01 6.60e-01 1.62e+03  -6.0 4.87e+02 -10.2 4.32e-01 2.94e-01h  1
 182 -2.5655648e-01 4.94e+00 4.63e+02  -6.0 1.41e+03 -10.7 2.09e-01 4.43e-01h  1
 183 -2.5661033e-01 3.75e+00 8.33e+04  -6.0 8.17e+02  -7.5 3.59e-02 4.50e-01h  1
 184 -2.5668729e-01 1.02e-01 6.00e+02  -6.0 8.12e+01  -8.0 2.46e-01 1.00e+00h  1
 185 -2.5665340e-01 4.51e-04 7.25e-02  -6.0 6.96e-01  -6.7 1.00e+00 1.00e+00h  1
 186 -2.5665098e-01 5.34e-05 4.18e-03  -6.0 1.33e+00  -7.1 1.00e+00 1.00e+00h  1
 187 -2.5664994e-01 2.69e-04 1.13e-03  -6.0 2.98e+00  -7.6 1.00e+00 1.00e+00h  1
 188 -2.5665108e-01 9.78e-04 9.96e-03  -6.0 5.69e+00  -8.1 1.00e+00 1.00e+00h  1
 189 -2.5666058e-01 3.41e-03 7.63e-02  -6.0 1.50e+01  -8.6 1.00e+00 1.00e+00h  1
iter    objective    inf_pr   inf_du lg(mu)  ||d||  lg(rg) alpha_du alpha_pr  ls
 190 -2.5667912e-01 2.85e-02 1.02e-01  -6.0 3.74e+01  -9.1 1.00e+00 1.00e+00h  1
 191 -2.5670243e-01 2.85e-01 9.43e-02  -6.0 8.91e+01  -9.5 1.00e+00 1.00e+00h  1
 192 -2.5672908e-01 9.06e-01 1.47e-01  -6.0 2.56e+02 -10.0 1.00e+00 9.85e-01h  1
 193 -2.5673341e-01 8.07e-01 1.92e+01  -6.0 1.17e+03 -10.5 1.00e+00 1.12e-01h  1
 194 -2.5674411e-01 1.02e+01 1.48e+01  -6.0 1.47e+03 -11.0 1.00e+00 6.12e-01h  1
 195 -2.5674364e-01 9.12e+00 1.21e+01  -6.0 2.33e+03 -10.5 1.66e-01 1.03e-01h  1
 196 -2.5674491e-01 1.30e+01 2.36e+01  -6.0 5.44e+04    -  2.85e-02 1.51e-02h  2
 197 -2.5675096e-01 1.04e+01 1.61e+01  -6.0 1.14e+03 -11.0 1.00e+00 3.80e-01h  1
 198 -2.5675541e-01 7.14e+00 1.65e+01  -6.0 8.35e+02  -9.7 8.14e-02 3.11e-01h  1
 199 -2.5677216e-01 1.26e+00 1.81e+01  -6.0 3.30e+02  -9.3 3.23e-02 1.00e+00h  1
iter    objective    inf_pr   inf_du lg(mu)  ||d||  lg(rg) alpha_du alpha_pr  ls
 200 -2.5677368e-01 2.13e-01 8.08e-03  -6.0 1.01e+02  -9.7 1.00e+00 1.00e+00h  1
 201 -2.5677332e-01 3.08e-01 5.43e+00  -6.0 3.61e+02 -10.2 1.00e+00 2.84e-01h  2
 202 -2.5676571e-01 1.34e+00 1.21e+01  -6.0 9.89e+02 -10.7 1.00e+00 4.35e-01H  1
 203 -2.5676294e-01 1.72e+00 4.67e+01  -6.0 2.15e+03    -  1.00e+00 1.55e-01h  1
 204 -2.5675988e-01 1.84e+00 3.98e+01  -6.0 1.24e+03    -  1.62e-01 1.42e-01h  1
 205 -2.5676072e-01 3.44e-01 2.93e+01  -6.0 9.38e+02    -  3.37e-01 1.00e+00h  1
 206 -2.5675541e-01 1.00e-02 7.72e-04  -6.0 2.95e+01  -9.4 1.00e+00 1.00e+00h  1
 207 -2.5675457e-01 2.70e-02 2.68e-03  -6.0 5.41e+01    -  1.00e+00 1.00e+00h  1
 208 -2.5675456e-01 1.16e-03 1.15e-05  -6.0 4.06e+00    -  1.00e+00 1.00e+00h  1
 209 -2.5675455e-01 2.05e-05 2.41e-07  -6.0 5.40e-01    -  1.00e+00 1.00e+00h  1
iter    objective    inf_pr   inf_du lg(mu)  ||d||  lg(rg) alpha_du alpha_pr  ls
 210 -2.5675455e-01 3.05e-10 1.75e-11  -6.0 2.78e-04    -  1.00e+00 1.00e+00h  1
 211 -2.5721698e-01 3.70e-01 1.89e+01  -7.5 4.07e+03    -  2.41e-01 1.74e-01f  1
 212 -2.5757697e-01 8.29e-01 6.32e+01  -7.5 2.61e+03    -  4.35e-01 2.12e-01h  1
 213 -2.5770153e-01 8.65e-01 8.13e+01  -7.5 2.57e+03    -  3.12e-01 1.09e-01h  1
 214 -2.5773195e-01 8.29e-01 7.61e+01  -7.5 3.64e+02  -9.8 3.12e-02 4.72e-02h  1
 215 -2.5788168e-01 9.35e-01 4.77e+01  -7.5 5.55e+02 -10.3 1.56e-01 2.61e-01h  1
 216 -2.5793416e-01 7.76e-01 5.70e+01  -7.5 7.86e+01  -9.0 4.32e-01 1.74e-01h  1
 217 -2.5799010e-01 6.42e-01 4.15e+01  -7.5 4.95e+02  -9.5 1.04e-01 2.04e-01h  1
 218 -2.5812399e-01 4.27e+01 6.50e+01  -7.5 6.08e+03    -  1.34e-02 3.18e-01h  1
 219 -2.5816311e-01 3.50e+01 1.33e+02  -7.5 1.96e+03    -  9.05e-02 2.46e-01h  1
iter    objective    inf_pr   inf_du lg(mu)  ||d||  lg(rg) alpha_du alpha_pr  ls
 220 -2.5817873e-01 3.38e+01 8.18e+01  -7.5 1.39e+03    -  7.59e-02 3.36e-02h  1
 221 -2.5824257e-01 1.84e+01 6.49e+02  -7.5 1.22e+03    -  9.11e-02 4.79e-01h  1
 222 -2.5824849e-01 1.40e+01 4.93e+02  -7.5 1.45e+03    -  2.67e-01 2.41e-01h  1
 223 -2.5825582e-01 3.15e+01 3.38e+02  -7.5 5.02e+03    -  2.91e-01 3.15e-01h  1
 224 -2.5826326e-01 8.40e+01 2.46e+02  -7.5 8.00e+03    -  2.44e-01 2.72e-01h  1
 225 -2.5826611e-01 5.70e+01 1.62e+02  -7.5 8.96e+02    -  3.39e-01 3.40e-01h  1
 226 -2.5826659e-01 4.58e+01 1.30e+02  -7.5 7.68e+02  -9.9 2.47e-02 1.97e-01h  1
 227 -2.5826953e-01 4.04e+01 1.12e+02  -7.5 1.04e+04    -  1.12e-02 1.44e-01h  2
 228 -2.5827279e-01 4.00e+01 3.43e+01  -7.5 1.82e+03    -  1.42e-01 1.00e+00h  1
 229 -2.5827286e-01 3.95e-02 2.97e+01  -7.5 7.37e+01 -10.4 9.08e-02 1.00e+00h  1
iter    objective    inf_pr   inf_du lg(mu)  ||d||  lg(rg) alpha_du alpha_pr  ls
 230 -2.5827388e-01 9.25e-01 2.93e-03  -7.5 2.47e+02 -10.9 1.00e+00 1.00e+00h  1
 231 -2.5827606e-01 3.50e+00 1.10e-02  -7.5 4.77e+02 -11.4 1.00e+00 1.00e+00h  1
 232 -2.5827706e-01 6.55e+00 1.01e+00  -7.5 7.21e+04    -  2.59e-02 6.15e-03h  1
 233 -2.5827807e-01 6.10e+00 5.05e-01  -7.5 1.16e+03 -11.8 7.96e-01 1.92e-01h  1
 234 -2.5828587e-01 7.95e+01 1.30e+00  -7.5 4.42e+03 -12.3 2.15e-02 9.04e-01H  1
 235 -2.5828510e-01 5.89e+01 1.17e+01  -7.5 1.17e+03    -  1.00e+00 2.59e-01h  1
 236 -2.5828856e-01 3.07e+01 5.71e+00  -7.5 1.28e+03    -  4.27e-01 1.00e+00h  1
 237 -2.5828863e-01 2.98e+01 2.38e+00  -7.5 3.25e+03    -  1.76e-01 2.84e-02h  6
 238 -2.5828871e-01 3.73e-01 1.21e+01  -7.5 5.43e+01 -11.0 1.44e-01 1.00e+00h  1
 239 -2.5828882e-01 3.70e-01 3.81e-01  -7.5 7.77e+01    -  9.29e-01 1.00e+00h  1
iter    objective    inf_pr   inf_du lg(mu)  ||d||  lg(rg) alpha_du alpha_pr  ls
 240 -2.5829014e-01 8.50e+00 4.64e-01  -7.5 1.57e+03    -  6.62e-01 3.18e-01h  2
 241 -2.5829170e-01 7.78e+00 5.27e-02  -7.5 6.29e+02    -  1.00e+00 1.00e+00h  1
 242 -2.5829163e-01 5.87e-02 6.68e-04  -7.5 6.47e+01    -  1.00e+00 1.00e+00h  1
 243 -2.5829164e-01 7.01e-03 7.82e-06  -7.5 2.40e+01    -  1.00e+00 1.00e+00h  1
 244 -2.5829164e-01 4.90e-05 5.44e-08  -7.5 2.00e+00    -  1.00e+00 1.00e+00h  1
 245 -2.5829164e-01 1.80e-09 1.68e-12  -7.5 1.21e-02    -  1.00e+00 1.00e+00h  1
 246 -2.5829429e-01 4.75e+00 8.76e-01  -9.0 2.58e+03    -  2.45e-01 1.89e-01h  1
 247 -2.5829672e-01 3.82e+00 1.20e-01  -9.0 4.68e+02 -11.5 7.60e-01 7.69e-01h  1
 248 -2.5829869e-01 1.59e+01 6.86e-02  -9.0 9.59e+02 -11.9 8.69e-01 8.92e-01h  1
 249 -2.5830090e-01 3.41e+01 1.59e-01  -9.0 1.48e+03 -12.4 5.79e-01 1.00e+00h  1
iter    objective    inf_pr   inf_du lg(mu)  ||d||  lg(rg) alpha_du alpha_pr  ls
 250 -2.5830217e-01 8.16e+01 1.45e-01  -9.0 8.05e+03 -12.9 8.41e-02 2.68e-01h  1
 251 -2.5830214e-01 7.51e+01 1.14e-01  -9.0 6.30e+02    -  2.13e-01 7.99e-02h  1
 252 -2.5830351e-01 6.26e+01 1.01e-01  -9.0 2.03e+03 -12.5 1.08e-01 1.00e+00h  1
 253 -2.5830447e-01 5.27e+01 1.15e-01  -9.0 3.65e+03 -13.0 3.97e-02 3.48e-01h  1
 254 -2.5830619e-01 5.65e+01 7.82e-02  -9.0 1.82e+03 -12.5 4.16e-01 1.00e+00h  1
 255 -2.5830712e-01 7.91e+01 6.66e-02  -9.0 1.17e+04 -13.0 1.61e-01 1.86e-01h  1
 256 -2.5830711e-01 7.66e+01 2.79e-01  -9.0 2.44e+03    -  2.89e-01 3.26e-02h  1
 257 -2.5830718e-01 5.94e+01 1.51e+00  -9.0 1.86e+03    -  2.85e-02 2.29e-01h  1
 258 -2.5830717e-01 5.66e+01 1.45e+00  -9.0 6.70e+02 -10.8 9.39e-03 4.68e-02h  1
 259 -2.5830716e-01 5.12e+01 1.30e+00  -9.0 4.28e+01 -10.3 1.17e-01 9.64e-02h  1
iter    objective    inf_pr   inf_du lg(mu)  ||d||  lg(rg) alpha_du alpha_pr  ls
 260 -2.5830703e-01 4.51e-01 5.74e-01  -9.0 1.90e+02 -10.8 1.23e-01 1.00e+00h  1
 261 -2.5830707e-01 3.37e-01 4.55e-01  -9.0 1.12e+02 -11.3 7.31e-01 2.56e-01h  1
 262 -2.5830727e-01 2.81e+00 1.15e-01  -9.0 4.50e+02 -11.8 3.12e-01 6.81e-01f  1
 263 -2.5830784e-01 1.44e+01 6.18e-02  -9.0 2.94e+03 -12.3 2.53e-02 3.24e-01h  1
 264 -2.5830915e-01 6.10e+01 1.41e-01  -9.0 1.89e+04 -12.7 2.30e-02 9.36e-02h  1
 265 -2.5831027e-01 5.21e+01 1.38e-01  -9.0 2.91e+03 -13.2 1.78e-02 5.59e-01h  1
 266 -2.5830933e-01 5.96e+01 4.66e-01  -9.0 3.70e+03    -  4.79e-02 9.34e-01H  1
 267 -2.5830955e-01 5.54e+01 4.46e-01  -9.0 6.45e+03    -  4.13e-02 4.44e-02h  1
 268 -2.5830957e-01 4.92e+01 4.00e-01  -9.0 6.56e+02 -12.8 5.30e-01 1.12e-01h  1
 269 -2.5830963e-01 9.42e+00 3.15e-01  -9.0 6.51e+03 -13.3 3.47e-01 2.34e-01h  1
iter    objective    inf_pr   inf_du lg(mu)  ||d||  lg(rg) alpha_du alpha_pr  ls
 270 -2.5830963e-01 9.42e+00 3.15e-01  -9.0 2.25e+04    -  9.16e-06 1.11e-03h  7
 271 -2.5830967e-01 9.67e+00 3.04e-01  -9.0 5.66e+03 -12.8 2.92e-01 3.05e-02h  4
 272 -2.5830966e-01 9.72e+00 2.99e-01  -9.0 6.44e+03 -13.3 1.90e-01 1.64e-02h  2
 273 -2.5830970e-01 9.39e+00 2.61e-01  -9.0 1.78e+03    -  1.00e+00 1.23e-01h  2
 274 -2.5830971e-01 9.03e+00 2.39e-01  -9.0 1.84e+03    -  2.45e-01 8.46e-02h  4
 275 -2.5830971e-01 8.78e+00 2.25e-01  -9.0 2.14e+03    -  3.58e-01 6.24e-02h  4
 276 -2.5830971e-01 8.61e+00 2.18e-01  -9.0 2.35e+03    -  5.67e-01 2.99e-02h  5
 277 -2.5830971e-01 8.48e+00 2.14e-01  -9.0 2.42e+03    -  4.85e-02 1.86e-02h  6
 278 -2.5830971e-01 8.44e+00 2.13e-01  -9.0 2.63e+03    -  2.84e-01 4.73e-03h  7
 279 -2.5830970e-01 8.33e+00 2.10e-01  -9.0 4.31e+03    -  1.03e-02 1.63e-02h  5
iter    objective    inf_pr   inf_du lg(mu)  ||d||  lg(rg) alpha_du alpha_pr  ls
 280 -2.5830971e-01 8.18e+00 2.01e-01  -9.0 2.50e+03    -  1.00e+00 4.39e-02h  1
 281 -2.5830971e-01 8.05e+00 1.93e-01  -9.0 2.68e+03    -  1.41e-01 3.96e-02h  5
 282 -2.5830970e-01 7.95e+00 1.88e-01  -9.0 2.86e+03    -  4.17e-01 3.71e-02h  5
 283 -2.5830970e-01 7.86e+00 2.61e-01  -9.0 3.01e+03    -  4.95e-01 3.53e-02h  5
 284 -2.5830969e-01 7.79e+00 2.80e-01  -9.0 3.15e+03    -  1.47e-01 3.37e-02h  5
 285 -2.5830969e-01 7.72e+00 5.86e-01  -9.0 3.34e+03    -  1.00e+00 1.58e-02h  6
 286 -2.5830969e-01 7.69e+00 5.98e-01  -9.0 3.37e+03    -  2.90e-02 3.89e-03h  8
 287 -2.5830969e-01 7.67e+00 6.17e-01  -9.0 4.07e+03    -  3.17e-02 2.21e-03h  8
 288 -2.5830969e-01 7.64e+00 6.32e-01  -9.0 2.89e+03 -12.0 4.98e-02 4.44e-03h  8
 289 -2.5830969e-01 7.63e+00 6.41e-01  -9.0 7.20e+03    -  1.32e-02 1.25e-03h  8
iter    objective    inf_pr   inf_du lg(mu)  ||d||  lg(rg) alpha_du alpha_pr  ls
 290 -2.5830969e-01 7.61e+00 6.55e-01  -9.0 2.30e+03 -11.6 1.06e-01 2.49e-03h  1
 291 -2.5830988e-01 4.16e+00 2.27e-01  -9.0 4.81e+02 -12.0 7.44e-01 1.00e+00f  1
 292 -2.5830989e-01 4.13e+00 1.32e-01  -9.0 6.17e+03    -  2.86e-01 7.27e-03h  3
 293 -2.5831005e-01 1.60e+01 1.09e-01  -9.0 4.45e+03    -  4.30e-01 2.12e-01h  1
 294 -2.5831009e-01 1.89e+00 3.35e-03  -9.0 3.07e+02 -12.5 1.00e+00 1.00e+00h  1
 295 -2.5831009e-01 1.18e+00 7.61e-03  -9.0 2.27e+02    -  1.21e-01 1.00e+00h  1
 296 -2.5831011e-01 6.46e-01 3.05e-04  -9.0 1.86e+02 -12.1 1.00e+00 1.00e+00h  1
 297 -2.5831016e-01 3.86e+00 7.14e-04  -9.0 3.74e+03    -  9.71e-02 1.12e-01h  1
 298 -2.5831014e-01 3.72e+00 3.04e-02  -9.0 1.28e+03    -  1.00e+00 7.72e-02h  2
 299 -2.5831018e-01 1.65e+00 4.79e-02  -9.0 2.78e+02    -  8.19e-02 7.56e-01h  1
iter    objective    inf_pr   inf_du lg(mu)  ||d||  lg(rg) alpha_du alpha_pr  ls
 300 -2.5831021e-01 3.08e+00 5.50e-02  -9.0 2.45e+03    -  4.17e-01 1.18e-01h  2
 301 -2.5831021e-01 3.08e+00 4.77e-02  -9.0 1.56e+04    -  1.13e-01 7.68e-04h  8
 302 -2.5831022e-01 3.09e+00 3.23e-02  -9.0 1.71e+03    -  1.00e+00 5.82e-02h  5
 303 -2.5831023e-01 3.10e+00 3.84e-02  -9.0 1.65e+03    -  9.75e-01 6.14e-02h  5
 304 -2.5831050e-01 2.53e+01 2.97e-02  -9.0 1.74e+03    -  6.13e-01 7.32e-01H  1
 305 -2.5831038e-01 2.05e+01 1.25e-01  -9.0 9.40e+02    -  8.47e-01 1.00e+00h  1
 306 -2.5831034e-01 8.66e-01 3.27e-02  -9.0 1.98e+02 -12.6 8.47e-01 1.00e+00h  1
 307 -2.5831034e-01 8.21e-01 2.86e-02  -9.0 4.34e+02    -  1.00e+00 1.25e-01h  4
 308 -2.5831034e-01 7.76e-01 2.50e-02  -9.0 4.12e+02    -  1.00e+00 1.25e-01h  4
 309 -2.5831033e-01 7.21e-01 2.18e-02  -9.0 3.55e+02    -  1.00e+00 1.25e-01h  4
iter    objective    inf_pr   inf_du lg(mu)  ||d||  lg(rg) alpha_du alpha_pr  ls
 310 -2.5831033e-01 6.70e-01 1.62e-02  -9.0 3.10e+02    -  1.00e+00 2.50e-01h  3
 311 -2.5831031e-01 4.79e-01 2.17e-03  -9.0 2.26e+02    -  1.00e+00 1.00e+00H  1
 312 -2.5831032e-01 3.49e-01 4.26e-04  -9.0 2.11e+02    -  1.00e+00 1.00e+00H  1
 313 -2.5831033e-01 4.34e-02 6.51e-05  -9.0 4.43e+01    -  1.00e+00 1.00e+00h  1
 314 -2.5831033e-01 7.89e-05 7.40e-08  -9.0 1.83e+00    -  1.00e+00 1.00e+00h  1
 315 -2.5831033e-01 2.88e-10 3.60e-14  -9.0 2.27e-04    -  1.00e+00 1.00e+00h  1

Number of Iterations....: 315

                                   (scaled)                 (unscaled)
Objective...............:  -2.5831032593586961e-01   -2.5831032593586961e-01
Dual infeasibility......:   3.5970136653927899e-14    3.5970136653927899e-14
Constraint violation....:   2.8781335474625802e-10    2.8781335474625802e-10
Complementarity.........:   9.0909092899100159e-10    9.0909092899100159e-10
Overall NLP error.......:   9.0909092899100159e-10    9.0909092899100159e-10


Number of objective function evaluations             = 610
Number of objective gradient evaluations             = 316
Number of equality constraint evaluations            = 610
Number of inequality constraint evaluations          = 611
Number of equality constraint Jacobian evaluations   = 318
Number of inequality constraint Jacobian evaluations = 318
Number of Lagrangian Hessian evaluations             = 315
Total CPU secs in IPOPT (w/o function evaluations)   =    714.290
Total CPU secs in NLP function evaluations           =     15.053

EXIT: Optimal Solution Found.
